% Instancia generada para Grupo 5
% Diámetros: [75, 100, 150] mm
% Capacidades: [795, 1414, 3181] l/min
% Demanda total: 1687 l/min
% Costos tipo a: 302, tipo b: 301
% Semilla: 139993

nP = 2;
nT = 6;
nC1 = 9;
nC2 = 15;
N = 32;

nA = 201;
arc_from = [1, 1, 1, 1, 1, 1, 2, 2, 2, 2, 2, 2, 3, 3, 3, 3, 3, 3, 3, 3, 3, 4, 4, 4, 4, 4, 4, 4, 4, 4, 5, 5, 5, 5, 5, 5, 5, 5, 5, 6, 6, 6, 6, 6, 6, 6, 6, 6, 7, 7, 7, 7, 7, 7, 7, 7, 7, 8, 8, 8, 8, 8, 8, 8, 8, 8, 9, 9, 9, 9, 9, 9, 9, 9, 9, 9, 9, 9, 9, 9, 9, 10, 10, 10, 10, 10, 10, 10, 10, 10, 10, 10, 10, 10, 10, 10, 11, 11, 11, 11, 11, 11, 11, 11, 11, 11, 11, 11, 11, 11, 11, 12, 12, 12, 12, 12, 12, 12, 12, 12, 12, 12, 12, 12, 12, 12, 13, 13, 13, 13, 13, 13, 13, 13, 13, 13, 13, 13, 13, 13, 13, 14, 14, 14, 14, 14, 14, 14, 14, 14, 14, 14, 14, 14, 14, 14, 15, 15, 15, 15, 15, 15, 15, 15, 15, 15, 15, 15, 15, 15, 15, 16, 16, 16, 16, 16, 16, 16, 16, 16, 16, 16, 16, 16, 16, 16, 17, 17, 17, 17, 17, 17, 17, 17, 17, 17, 17, 17, 17, 17, 17];
arc_to   = [3, 4, 5, 6, 7, 8, 3, 4, 5, 6, 7, 8, 9, 10, 11, 12, 13, 14, 15, 16, 17, 9, 10, 11, 12, 13, 14, 15, 16, 17, 9, 10, 11, 12, 13, 14, 15, 16, 17, 9, 10, 11, 12, 13, 14, 15, 16, 17, 9, 10, 11, 12, 13, 14, 15, 16, 17, 9, 10, 11, 12, 13, 14, 15, 16, 17, 18, 19, 20, 21, 22, 23, 24, 25, 26, 27, 28, 29, 30, 31, 32, 18, 19, 20, 21, 22, 23, 24, 25, 26, 27, 28, 29, 30, 31, 32, 18, 19, 20, 21, 22, 23, 24, 25, 26, 27, 28, 29, 30, 31, 32, 18, 19, 20, 21, 22, 23, 24, 25, 26, 27, 28, 29, 30, 31, 32, 18, 19, 20, 21, 22, 23, 24, 25, 26, 27, 28, 29, 30, 31, 32, 18, 19, 20, 21, 22, 23, 24, 25, 26, 27, 28, 29, 30, 31, 32, 18, 19, 20, 21, 22, 23, 24, 25, 26, 27, 28, 29, 30, 31, 32, 18, 19, 20, 21, 22, 23, 24, 25, 26, 27, 28, 29, 30, 31, 32, 18, 19, 20, 21, 22, 23, 24, 25, 26, 27, 28, 29, 30, 31, 32];

demand = [0, 0, 0, 0, 0, 0, 0, 0, 46, 44, 86, 55, 60, 95, 91, 73, 86, 79, 44, 96, 54, 74, 80, 47, 51, 52, 95, 84, 76, 67, 90, 62];

install_cost = array2d(1..201, 1..3, [50, 24, 78, 50, 62, 32, 50, 62, 78, 20, 62, 78, 20, 24, 78, 20, 62, 32, 50, 24, 78, 50, 24, 78, 50, 24, 32, 50, 62, 32, 20, 24, 78, 20, 62, 32, 50, 24, 78, 50, 62, 78, 50, 24, 78, 20, 24, 78, 50, 24, 78, 20, 24, 78, 20, 24, 78, 50, 62, 78, 20, 62, 32, 20, 62, 32, 20, 62, 32, 20, 24, 78, 20, 62, 32, 20, 24, 32, 20, 24, 32, 20, 62, 32, 20, 62, 78, 50, 24, 78, 50, 24, 78, 20, 62, 78, 50, 24, 32, 50, 24, 32, 20, 24, 78, 50, 24, 32, 50, 62, 78, 50, 24, 78, 20, 24, 78, 20, 24, 32, 20, 62, 78, 20, 24, 32, 50, 62, 32, 50, 62, 78, 20, 24, 32, 50, 24, 32, 50, 24, 78, 20, 24, 78, 20, 24, 78, 20, 62, 78, 50, 24, 78, 50, 62, 78, 20, 62, 32, 50, 24, 32, 20, 62, 78, 50, 62, 78, 50, 62, 78, 20, 24, 32, 50, 24, 78, 50, 62, 32, 20, 62, 78, 50, 62, 32, 50, 24, 32, 20, 24, 78, 50, 24, 32, 50, 24, 78, 50, 24, 32, 50, 24, 78, 20, 62, 78, 20, 24, 78, 50, 24, 78, 20, 24, 32, 50, 62, 78, 20, 62, 78, 50, 24, 78, 50, 62, 32, 20, 62, 78, 50, 62, 78, 50, 24, 32, 20, 24, 78, 50, 24, 32, 50, 62, 78, 20, 24, 32, 20, 24, 78, 20, 24, 32, 50, 24, 32, 50, 24, 78, 50, 24, 32, 20, 62, 78, 20, 24, 78, 20, 24, 32, 50, 24, 78, 20, 62, 32, 50, 62, 78, 20, 62, 78, 50, 62, 78, 20, 62, 32, 50, 24, 32, 20, 62, 32, 20, 62, 32, 20, 24, 78, 50, 62, 32, 20, 24, 32, 20, 62, 32, 20, 62, 32, 50, 62, 32, 50, 62, 32, 20, 62, 78, 50, 62, 78, 20, 24, 78, 50, 24, 78, 50, 24, 78, 20, 24, 32, 20, 24, 78, 50, 62, 78, 20, 24, 32, 50, 62, 78, 50, 62, 32, 20, 24, 32, 50, 24, 32, 50, 24, 78, 50, 24, 78, 50, 24, 78, 20, 62, 32, 20, 62, 78, 20, 62, 32, 50, 24, 32, 20, 62, 32, 20, 62, 78, 50, 24, 78, 50, 24, 32, 50, 62, 32, 20, 62, 32, 50, 62, 32, 50, 62, 32, 20, 62, 32, 20, 62, 32, 20, 62, 32, 20, 62, 32, 20, 62, 32, 50, 24, 78, 50, 24, 78, 50, 62, 78, 20, 24, 78, 20, 62, 78, 20, 24, 78, 20, 62, 32, 20, 24, 32, 50, 24, 32, 20, 62, 78, 20, 24, 78, 20, 62, 78, 20, 62, 78, 20, 62, 78, 50, 62, 32, 20, 24, 32, 50, 62, 32, 50, 62, 78, 20, 24, 78, 50, 62, 32, 50, 62, 78, 50, 62, 32, 50, 24, 78, 20, 24, 32, 50, 24, 78, 20, 24, 78, 50, 62, 32, 20, 62, 78, 20, 62, 32, 20, 62, 78, 20, 62, 32, 50, 62, 32, 50, 24, 32, 20, 24, 78, 50, 24, 32, 20, 24, 78, 50, 24, 32, 20, 24, 78, 20, 24, 32, 20, 24, 78, 20, 62, 32, 50, 24, 78, 50, 62, 32, 50, 24, 78, 50, 62, 78, 20, 24, 32, 50, 24, 78, 20, 24, 32, 20, 24, 32, 20, 24, 78, 50, 24, 78, 20, 62, 78, 50, 62, 32, 50, 62, 78, 20, 24, 32, 50, 24, 32, 20, 62, 78, 50, 62, 32, 50, 24, 78, 50, 24, 32, 50, 24, 78]);
trans_cost   = [10.66, 7.94, 8.29, 10.44, 10.3, 9.44, 7.42, 10.28, 7.73, 8.01, 11.37, 5.78, 9.46, 7.36, 6.57, 10.93, 7.56, 11.41, 6.17, 8.37, 8.36, 6.13, 11.85, 8.14, 8.15, 7.17, 8.63, 6.11, 8.67, 6.6, 8.68, 5.47, 5.48, 11.27, 6.33, 10.33, 10.69, 9.52, 7.18, 9.58, 4.41, 11.3, 12.62, 6.62, 5.51, 7.35, 9.48, 6.88, 3.41, 7.28, 7.24, 8.84, 9.41, 8.65, 8.73, 9.24, 8.07, 7.55, 5.31, 4.88, 10.59, 4.25, 9.99, 9.48, 6.26, 9.08, 5.93, 8.85, 5.77, 7.33, 11.56, 6.04, 7.44, 9.42, 7.54, 5.65, 7.47, 7.82, 7.72, 4.68, 9.71, 9.93, 6.98, 5.83, 7.9, 11.64, 1.27, 8.06, 7.23, 6.3, 6.6, 7.54, 11.39, 11.16, 6.26, 11.12, 7.81, 4.05, 3.71, 7.9, 11.68, 10.09, 6.46, 7.95, 9.18, 7.0, 7.64, 8.89, 6.64, 6.41, 4.62, 8.5, 8.61, 9.11, 6.96, 7.12, 5.46, 7.17, 4.66, 8.34, 9.06, 10.78, 6.73, 8.58, 6.59, 4.98, 9.68, 11.42, 9.48, 5.92, 2.62, 5.62, 11.3, 8.12, 8.26, 9.59, 9.47, 6.23, 8.58, 7.33, 7.99, 4.87, 9.33, 10.49, 7.41, 7.5, 9.71, 8.0, 9.52, 6.1, 9.09, 3.34, 7.6, 4.27, 7.15, 3.93, 9.77, 6.33, 6.47, 6.47, 7.22, 10.4, 7.79, 7.97, 11.2, 10.96, 6.91, 7.11, 6.49, 8.15, 1.77, 6.04, 4.77, 9.56, 5.31, 7.36, 7.63, 10.15, 5.24, 11.13, 10.1, 11.58, 10.18, 11.67, 9.78, 7.49, 5.66, 9.17, 12.05, 6.43, 6.01, 8.52, 11.54, 9.27, 7.36, 5.15, 10.42, 10.03, 5.98, 10.12, 2.87];
